num_tasks=22;
num_machines=3;
comp_cost=[|0, 0, 0, 
|130, 105, 53,
|128, 96, 131,
|136, 57, 126,
|67, 121, 90,
|142, 126, 127,
|96, 111, 145,
|66, 70, 75,
|135, 115, 134,
|125, 145, 123,
|68, 62, 140,
|125, 122, 149,
|69, 86, 67,
|61, 91, 126,
|57, 107, 56,
|147, 144, 89,
|53, 132, 74,
|87, 124, 58,
|97, 73, 50,
|78, 122, 98,
|145, 106, 82,
|0, 0, 0|];
comm_cost=[|0,0,0,0,0,0,0,0,0,0,0,0,0,0,0,0,0,0,0,0,0,0,
|0,0,66,95,90,100,88,131,61,143,57,0,0,0,0,0,0,0
,0,0,0,0,
|0,0,0,0,82,0,0,114,0,0,145,76,129,77,142,50,138,0
,0,0,0,0,
|0,0,0,0,0,119,0,0,103,138,73,144,0,102,127,103,103,97
,131,60,0,0,
|0,0,0,0,0,147,116,0,117,0,0,0,0,0,100,0,81,0
,90,0,69,0,
|0,0,0,0,0,0,53,0,76,0,0,0,0,0,0,0,83,0,0,0,0,0,
|0,0,0,0,0,0,0,61,122,0,76,0,0,0,0,0,91,0
,0,0,0,0,
|0,0,0,0,0,0,0,0,0,0,107,0,0,0,0,0,149,0
,0,0,0,0,
|0,0,0,0,0,0,0,0,0,80,82,0,0,0,0,0,82,0,0,0,0,0,
|0,0,0,0,0,0,0,0,0,0,71,0,0,0,0,0,0,0,0,0,0,0,
|0,0,0,0,0,0,0,0,0,0,0,0,0,0,0,0,0,0,0,0,0,0,
|0,0,0,0,0,60,0,0,0,0,124,0,0,84,0,0,94,0
,0,121,0,0,
|0,0,0,0,124,109,0,0,73,92,0,0,0,136,0,101,0,0
,58,0,124,0,
|0,0,0,0,0,67,0,100,0,145,82,0,0,0,0,52,0,0
,0,74,0,0,
|0,0,0,0,0,66,79,0,136,59,115,0,0,0,0,148,0,0
,0,54,0,0,
|0,0,0,0,0,53,58,103,0,70,128,0,0,0,0,0,0,0
,0,0,121,0,
|0,0,0,0,0,0,0,0,0,58,60,0,0,0,0,0,0,0,0,0,0,0,
|0,0,0,0,58,102,0,106,75,0,0,0,57,138,140,132,0,0
,0,82,64,0,
|0,0,0,0,0,0,0,76,0,70,0,0,0,0,86,134,0,0
,0,0,108,0,
|0,0,0,0,0,110,69,146,114,0,0,0,0,0,0,71,89,0
,0,0,143,0,
|0,0,0,0,0,71,0,0,56,0,137,0,0,0,0,0,0,0
,0,0,0,0,
|0,0,0,0,0,0,0,0,0,0,0,0,0,0,0,0,0,0,0,0,0,0|];
max_time=5000;
